0 9 9 9 9 9 9 9 9 9 9 
9 0 10 13 6 7 7 10 3 4 2 
9 10 0 10 10 10 10 10 10 10 10 
9 13 10 0 5 15 12 14 4 12 2 
9 6 10 5 0 2 2 2 4 2 2 
9 7 10 15 2 0 7 1 4 12 2 
9 7 10 12 2 7 0 6 4 5 2 
9 10 10 14 2 1 6 0 4 4 2 
9 3 10 4 4 4 4 4 0 4 2 
9 4 10 12 2 12 5 4 4 0 2 
9 2 10 2 2 2 2 2 2 2 0 